c ---- [ banner ] ------------------------------------------------------------
c
c Kissat SAT Solver
c 
c Copyright (c) 2021-2024 Armin Biere University of Freiburg
c Copyright (c) 2019-2021 Armin Biere Johannes Kepler University Linz
c 
c Version 4.0.1 43f02cf3e992cb44653b35e5cb26f93281552ae0
c gcc (Ubuntu 13.2.0-23ubuntu4) 13.2.0 -W -Wall -O3 -DNDEBUG
c Thu Sep 12 12:27:46 CEST 2024 Linux abryzen9 6.8.0-41-generic x86_64
c
c ---- [ parsing ] -----------------------------------------------------------
c
c opened and reading DIMACS file:
c
c   /data/artifact/AMulet2.0_artifact/exp4/cnf_dc2_64/64_64_U_SP_DT_CL_GenMul_dc2.cnf
c
c parsed 'p cnf 29187 128692' header
c closing input after reading 2574530 bytes (2 MB)
c finished parsing after 0.04 seconds
c
c ---- [ options ] -----------------------------------------------------------
c
c --stable=0                       (different from default '1')
c
c ---- [ solving ] -----------------------------------------------------------
c
c  seconds switched rate     size/glue tier1  binary           remaining
c         MB reductions conflicts size  tier2     irredundant
c          level restarts redundant glue  trail           variables
c
c *  0.04 10 0 0 0  0 0   0   0 0.0 0 0 0 0 0% 11529 117161 29184 100%
c (  0.06 12 0 0 0  0 0   0   0 0.0 0 0 0 0 0% 11529 117161 29184 100%
c .  0.07 13 0 0 0  0 0   0   0 0.0 0 0 0 0 0% 11525 117161 29184 100%
c c  0.18 17 0 0 0  0 0   0   0 0.0 0 0 0 0 0% 18038 104141 25929 89%
c d  0.18 17 0 0 0  0 0   0   0 0.0 0 0 0 0 0% 11528 104141 25929 89%
c =  0.25 17 0 0 0  0 0   0   0 0.0 0 0 0 0 0% 12036 104139 25675 88%
c d  0.26 17 0 0 0  0 0   0   0 0.0 0 0 0 0 0% 11528 104139 25675 88%
c f  0.38 17 0 0 0  0 0   0   0 0.0 0 0 0 0 0% 16185 96813 28280 97%
c e  0.59 25 0 0 0  0 0   0   0 0.0 0 0 0 0 0% 10033 104438 19381 66%
c )  0.59 25 0 0 0  0 0   0   0 0.0 0 0 0 0 0% 10033 104438 19381 66%
c {  0.62 25 0 0 0  0 0   0   0 0.0 0 0 2 6 0% 10033 104438 19381 66%
c -  0.89 27 175 0 1 162 28 1001 695 2.6 16 6 3 11 24% 10073 104438 19381 66%
c -  1.27 27 203 0 2 335 35 2005 1276 4.9 32 7 3 10 26% 10112 104438 19381 66%
c c  1.57 21 225 0 2 423 37 2502 1723 4.4 33 7 3 11 27% 10168 104180 19338 66%
c d  1.58 21 225 0 2 423 37 2502 1672 4.4 33 7 3 11 27% 10082 104180 19338 66%
c u  1.60 21 225 0 2 423 37 2502 1420 4.4 33 7 3 11 27% 10086 104180 19338 66%
c v  1.62 21 225 0 2 423 37 2502 1163 4.4 33 7 3 11 27% 10087 104180 19338 66%
c w  1.66 25 225 0 2 423 37 2502 1163 4.4 33 7 3 11 27% 10087 104180 19338 66%
c x  1.68 25 225 0 2 423 37 2502 1163 4.4 33 7 3 11 27% 10087 104153 19338 66%
c =  1.79 25 225 0 2 423 37 2502 1163 4.4 33 7 3 11 27% 10491 104153 19136 66%
c
c  seconds   switched   rate       size/glue tier1     binary           remaining
c         MB  reductions conflicts       size  tier2       irredundant
c           level restarts    redundant    glue    trail           variables
c
c d  1.79 25 225 0 2 423 37 2502 1157 4.4 33 7 3 11 27% 10084 104153 19135 66%
c f  1.85 25 225 0 2 423 37 2502 1157 4.4 33 7 3 11 27% 10656 103019 19697 67%
c c  1.92 25 225 0 2 423 37 2502 1157 4.4 33 7 3 11 27% 10658 103005 19696 67%
c d  1.93 25 225 0 2 423 37 2502 1157 4.4 33 7 3 11 27% 10656 103005 19696 67%
c u  1.95 25 225 0 2 423 37 2502 1122 4.4 33 7 3 11 27% 10659 103005 19696 67%
c v  1.97 25 225 0 2 423 37 2502 1086 4.4 33 7 3 11 27% 10659 103005 19696 67%
c w  2.03 25 225 0 2 423 37 2502 1079 4.4 33 7 3 11 27% 10659 103005 19696 67%
c =  2.13 25 225 0 2 423 37 2502 1079 4.4 33 7 3 11 27% 10873 103005 19589 67%
c d  2.14 25 225 0 2 423 37 2502 1079 4.4 33 7 3 11 27% 10625 103005 19589 67%
c f  2.19 25 225 0 2 423 37 2502 1079 4.4 33 7 3 11 27% 10715 102870 19634 67%
c -  2.40 27 275 0 3 477 34 3419 1527 4.2 30 7 3 11 27% 10746 102870 19634 67%
c -  2.88 27 309 0 4 624 36 5152 2519 4.5 31 7 3 11 28% 10830 102870 19634 67%
c -  3.42 27 317 0 5 835 35 7152 3668 4.3 30 7 3 11 28% 10895 102870 19634 67%
c d  3.50 27 324 0 5 870 34 7706 4079 4.3 29 7 3 11 28% 10789 102870 19569 67%
c u  3.54 27 324 0 5 870 34 7706 3432 4.3 29 7 3 11 28% 10807 102870 19569 67%
c v  3.58 27 324 0 5 870 34 7706 3123 4.3 29 7 3 11 28% 10808 102870 19569 67%
c w  3.61 27 324 0 5 870 34 7706 3121 4.3 29 7 3 11 28% 10808 102870 19569 67%
c x  3.65 27 324 0 5 870 34 7706 3121 4.3 29 7 3 11 28% 10808 102098 19569 67%
c =  3.78 27 324 0 5 870 34 7706 3121 4.3 29 7 3 11 28% 11618 102098 19164 66%
c d  3.79 27 324 0 5 870 34 7706 3042 4.3 29 7 3 11 28% 10693 102098 19162 66%
c
c  seconds   switched   rate       size/glue tier1     binary           remaining
c         MB  reductions conflicts       size  tier2       irredundant
c           level restarts    redundant    glue    trail           variables
c
c t  3.81 27 324 0 5 870 34 7706 3042 4.3 29 7 3 11 28% 10692 102098 19162 66%
c f  3.86 27 324 0 5 870 34 7706 3042 4.3 29 7 3 11 28% 11624 100689 19628 67%
c c  3.94 27 324 0 5 870 34 7706 3042 4.3 29 7 3 11 28% 11627 100681 19626 67%
c d  3.94 27 324 0 5 870 34 7706 3042 4.3 29 7 3 11 28% 11623 100681 19626 67%
c u  3.98 27 324 0 5 870 34 7706 2912 4.3 29 7 3 11 28% 11624 100681 19626 67%
c v  4.01 27 324 0 5 870 34 7706 2849 4.3 29 7 3 11 28% 11624 100681 19626 67%
c w  4.05 27 324 0 5 870 34 7706 2844 4.3 29 7 3 11 28% 11624 100681 19626 67%
c x  4.08 27 324 0 5 870 34 7706 2844 4.3 29 7 3 11 28% 11624 100547 19626 67%
c =  4.21 27 324 0 5 870 34 7706 2844 4.3 29 7 3 11 28% 12340 100547 19268 66%
c d  4.22 27 324 0 5 870 34 7706 2790 4.3 29 7 3 11 28% 11490 100547 19268 66%
c t  4.24 27 324 0 5 870 34 7706 2790 4.3 29 7 3 11 28% 11442 100547 19268 66%
c f  4.29 27 324 0 5 870 34 7706 2790 4.3 29 7 3 11 28% 13376 97646 20235 69%
c -  4.64 27 305 0 6 1004 32 9389 3699 4.2 28 7 3 11 27% 13422 97646 20235 69%
c o  4.85 27 295 0 6 1056 32 10000 4277 4.2 29 7 3 11 28% 13426 97646 20235 69%
c -  5.59 27 298 0 7 1311 34 11838 5106 4.7 34 7 3 10 28% 13481 97646 20235 69%
c s  5.88 27 299 0 7 1393 34 12507 5683 4.7 35 7 3 10 28% 13500 92555 20235 69%
c e  6.01 27 299 0 7 1393 34 12507 5683 4.7 35 7 3 10 28% 12465 93268 19638 67%
c s  6.01 27 299 0 7 1393 34 12507 5683 4.7 35 7 3 10 28% 12469 92702 19638 67%
c e  6.03 27 299 0 7 1393 34 12507 5683 4.7 35 7 3 10 28% 12467 92703 19637 67%
c ^  6.03 27 299 0 7 1393 34 12507 5683 4.7 35 7 3 10 28% 12467 92703 19637 67%
c
c  seconds   switched    rate        size/glue tier1     binary          remaining
c         MB  reductions   conflicts       size  tier2       irredundant
c           level  restarts     redundant    glue    trail          variables
c
c -  6.76 27 297 0 8 1619 33 14483 6015 4.5 38 8 2 10 29% 12515 92703 19637 67%
c d  7.06 27 297 0 8 1708 32 15785 7132 4.5 37 8 2 10 29% 12048 92701 19348 66%
c u  7.10 27 297 0 8 1708 32 15785 6481 4.5 37 8 2 10 29% 12061 92701 19348 66%
c v  7.17 27 297 0 8 1708 32 15785 5448 4.5 37 8 2 10 29% 12065 92701 19348 66%
c w  7.26 27 297 0 8 1708 32 15785 5445 4.5 37 8 2 10 29% 12065 92701 19348 66%
c x  7.31 27 297 0 8 1708 32 15785 5445 4.5 37 8 2 10 29% 12077 92537 19348 66%
c =  7.57 27 297 0 8 1708 32 15785 5445 4.5 37 8 2 10 29% 13133 92533 18820 64%
c d  7.58 27 297 0 8 1708 32 15785 5376 4.5 37 8 2 10 29% 11863 92533 18817 64%
c t  7.61 27 297 0 8 1708 32 15785 5376 4.5 37 8 2 10 29% 11785 92533 18817 64%
c f  7.67 27 297 0 8 1708 32 15785 5376 4.5 37 8 2 10 29% 11927 92245 18889 65%
c u  7.72 27 297 0 8 1708 32 15785 5209 4.5 37 8 2 10 29% 11928 92245 18889 65%
c v  7.77 27 297 0 8 1708 32 15785 5081 4.5 37 8 2 10 29% 11928 92245 18889 65%
c w  7.91 27 297 0 8 1708 32 15785 5058 4.5 37 8 2 10 29% 11928 92245 18889 65%
c =  8.18 27 297 0 8 1708 32 15785 5058 4.5 37 8 2 10 29% 13578 92245 18064 62%
c d  8.19 27 297 0 8 1708 32 15785 5012 4.5 37 8 2 10 29% 11151 92245 18064 62%
c -  8.63 27 294 0 9 1808 32 17311 5448 4.5 38 8 2 10 29% 11179 92245 18064 62%
c o  9.55 27 297 0 9 2103 32 20010 7834 4.6 40 9 2 10 30% 11239 92245 18064 62%
c -  9.66 27 295 0 10 2138 32 20313 6975 4.6 40 9 2 10 30% 11256 92245 18064 62%
c - 10.37 27 290 0 11 2352 31 23477 8437 4.5 39 9 2 9 30% 11314 92244 18064 62%
c s 10.66 27 296 0 11 2418 30 25008 9859 4.4 38 9 2 9 30% 11324 88665 18064 62%
c
c  seconds   switched     rate        size/glue tier1    binary         remaining
c         MB   reductions   conflicts       size  tier2     irredundant
c           level   restarts     redundant    glue   trail         variables
c
c e 10.78 27 296 0 11 2418 30 25008 9859 4.4 38 9 2 9 30% 9368 91258 16946 58%
c s 10.79 27 296 0 11 2418 30 25008 9859 4.4 38 9 2 9 30% 9369 90878 16946 58%
c e 10.80 27 296 0 11 2418 30 25008 9859 4.4 38 9 2 9 30% 9369 90864 16944 58%
c ^ 10.80 27 296 0 11 2418 30 25008 9859 4.4 38 9 2 9 30% 9369 90864 16944 58%
c - 11.23 27 296 0 12 2529 30 26794 8984 4.4 38 9 2 9 29% 9401 90864 16944 58%
c c 11.31 27 298 0 12 2529 30 26911 9087 4.4 38 9 2 9 29% 9446 90632 16912 58%
c d 11.31 27 298 0 12 2529 30 26911 9056 4.4 38 9 2 9 29% 9146 90632 16772 57%
c u 11.36 27 298 0 12 2529 30 26911 8108 4.4 38 9 2 9 29% 9161 90632 16772 57%
c v 11.42 27 298 0 12 2529 30 26911 7128 4.4 38 9 2 9 29% 9165 90632 16772 57%
c x 11.53 27 298 0 12 2529 30 26911 7123 4.4 38 9 2 9 29% 9165 89294 16772 57%
c = 11.84 27 298 0 12 2529 30 26911 7123 4.4 38 9 2 9 29% 12993 89284 14858 51%
c d 11.85 27 298 0 12 2529 30 26911 6825 4.4 38 9 2 9 29% 9030 89284 14857 51%
c t 11.87 27 298 0 12 2529 30 26911 6825 4.4 38 9 2 9 29% 9026 89284 14857 51%
c f 11.93 27 298 0 12 2529 30 26911 6825 4.4 38 9 2 9 29% 9023 89273 14861 51%
c u 11.99 27 298 0 12 2529 30 26911 6447 4.4 38 9 2 9 29% 9024 89273 14861 51%
c v 12.02 27 298 0 12 2529 30 26911 6322 4.4 38 9 2 9 29% 9024 89273 14861 51%
c w 12.03 27 298 0 12 2529 30 26911 6321 4.4 38 9 2 9 29% 9024 89273 14861 51%
c x 12.15 27 298 0 12 2529 30 26911 6321 4.4 38 9 2 9 29% 9033 80978 14861 51%
c = 12.42 27 298 0 12 2529 30 26911 6321 4.4 38 9 2 9 29% 9853 80978 14451 50%
c d 12.43 27 298 0 12 2529 30 26911 6257 4.4 38 9 2 9 29% 9018 80978 14451 50%
c
c  seconds   switched     rate        size/glue tier1    binary         remaining
c         MB   reductions   conflicts       size  tier2     irredundant
c           level   restarts     redundant    glue   trail         variables
c
c f 12.47 27 298 0 12 2529 30 26911 6257 4.4 38 9 2 9 29% 9020 80973 14452 50%
c - 12.78 27 284 0 13 2636 28 30259 7990 4.3 36 8 2 8 27% 9038 80973 14452 50%
c - 13.27 27 270 0 14 2809 27 33864 9916 4.2 34 8 2 8 27% 9072 80972 14452 50%
c - 13.65 27 273 0 15 2936 25 37607 11513 4.1 32 8 2 8 26% 9105 80972 14452 50%
c o 14.05 27 270 0 15 3093 25 40047 13698 4.0 32 8 2 8 26% 9117 80967 14452 50%
c c 14.30 27 268 0 15 3176 25 41242 14694 4.0 32 8 2 8 25% 9180 80638 14400 49%
c d 14.31 27 268 0 15 3176 25 41242 14348 4.0 32 8 2 8 25% 9076 80638 14400 49%
c u 14.37 27 268 0 15 3176 25 41242 12141 4.0 32 8 2 8 25% 9101 80638 14400 49%
c v 14.42 27 268 0 15 3176 25 41242 11685 4.0 32 8 2 8 25% 9101 80638 14400 49%
c w 14.46 27 268 0 15 3176 25 41242 11685 4.0 32 8 2 8 25% 9101 80638 14400 49%
c x 14.51 27 268 0 15 3176 25 41242 11685 4.0 32 8 2 8 25% 9101 76623 14400 49%
c d 14.69 27 268 0 15 3176 25 41242 11658 4.0 32 8 2 8 25% 9087 76623 14393 49%
c t 14.70 27 268 0 15 3176 25 41242 11658 4.0 32 8 2 8 25% 9084 76623 14393 49%
c c 14.77 27 268 0 15 3176 25 41242 11658 4.0 32 8 2 8 25% 9093 76575 14387 49%
c d 14.78 27 268 0 15 3176 25 41242 11584 4.0 32 8 2 8 25% 9081 76575 14387 49%
c u 14.83 27 268 0 15 3176 25 41242 11154 4.0 32 8 2 8 25% 9086 76575 14387 49%
c v 14.88 27 268 0 15 3176 25 41242 10256 4.0 32 8 2 8 25% 9089 76575 14387 49%
c w 14.92 27 268 0 15 3176 25 41242 10256 4.0 32 8 2 8 25% 9089 76575 14387 49%
c x 14.97 27 268 0 15 3176 25 41242 10255 4.0 32 8 2 8 25% 9089 75283 14387 49%
c d 14.98 27 268 0 15 3176 25 41242 10253 4.0 32 8 2 8 25% 9085 75283 14385 49%
c
c  seconds   switched     rate         size/glue tier1    binary         remaining
c         MB   reductions   conflicts        size  tier2     irredundant
c           level   restarts      redundant    glue   trail         variables
c
c t 15.00 27 268 0 15 3176 25 41242 10253 4.0 32 8 2 8 25% 9084 75283 14385 49%
c - 15.12 27 267 0 16 3226 25 41481 9125 4.0 32 8 2 7 25% 9084 75283 14385 49%
c - 15.81 27 263 0 17 3491 24 45482 11005 3.9 31 8 2 7 26% 9128 75283 14385 49%
c - 16.43 27 258 0 18 3761 24 49606 12608 3.8 31 8 2 7 25% 9162 75283 14385 49%
c s 16.96 27 256 0 18 3948 24 52108 14913 3.8 30 8 2 7 26% 9179 73467 14385 49%
c e 17.05 27 256 0 18 3948 24 52108 14913 3.8 30 8 2 7 26% 8806 73946 14146 48%
c s 17.05 27 256 0 18 3948 24 52108 14913 3.8 30 8 2 7 26% 8806 73786 14146 48%
c ^ 17.06 27 256 0 18 3948 24 52108 14913 3.8 30 8 2 7 26% 8806 73786 14146 48%
c - 17.24 27 257 0 19 4020 23 53848 13347 3.8 30 8 2 7 26% 8848 73786 14146 48%
c - 17.58 27 247 0 20 4114 22 58207 14875 3.7 29 8 2 7 25% 8888 73786 14146 48%
c d 17.60 27 245 0 20 4114 22 58886 15306 3.7 29 8 2 7 24% 8840 73786 14116 48%
c u 17.68 27 245 0 20 4114 22 58886 13360 3.7 29 8 2 7 24% 8872 73786 14116 48%
c v 17.74 27 245 0 20 4114 22 58886 12619 3.7 29 8 2 7 24% 8872 73786 14116 48%
c w 17.75 27 245 0 20 4114 22 58886 12598 3.7 29 8 2 7 24% 8872 73786 14116 48%
c x 17.83 27 245 0 20 4114 22 58886 12583 3.7 29 8 2 7 24% 8873 73046 14116 48%
c = 18.06 27 245 0 20 4114 22 58886 12583 3.7 29 8 2 7 24% 9073 73046 14016 48%
c d 18.07 27 245 0 20 4114 22 58886 12521 3.7 29 8 2 7 24% 8855 73046 14010 48%
c t 18.09 27 245 0 20 4114 22 58886 12521 3.7 29 8 2 7 24% 8847 73046 14010 48%
c c 18.16 27 245 0 20 4114 22 58886 12393 3.7 29 8 2 7 24% 8897 72838 13984 48%
c d 18.17 27 245 0 20 4114 22 58886 12384 3.7 29 8 2 7 24% 8845 72838 13984 48%
c
c  seconds   switched     rate         size/glue tier1    binary         remaining
c         MB   reductions   conflicts        size  tier2     irredundant
c           level   restarts      redundant    glue   trail         variables
c
c u 18.22 27 245 0 20 4114 22 58886 11864 3.7 29 8 2 7 24% 8865 72838 13984 48%
c v 18.29 27 245 0 20 4114 22 58886 10924 3.7 29 8 2 7 24% 8867 72838 13984 48%
c w 18.30 27 245 0 20 4114 22 58886 10902 3.7 29 8 2 7 24% 8867 72838 13984 48%
c x 18.38 27 245 0 20 4114 22 58886 10902 3.7 29 8 2 7 24% 8868 72071 13984 48%
c = 18.64 27 245 0 20 4114 22 58886 10902 3.7 29 8 2 7 24% 9822 72071 13507 46%
c d 18.65 27 245 0 20 4114 22 58886 10680 3.7 29 8 2 7 24% 8817 72071 13500 46%
c - 19.22 27 241 0 21 4339 22 62679 12389 3.6 28 8 2 7 24% 8860 72071 13500 46%
c - 20.23 27 239 0 22 4849 22 67261 14523 3.6 28 8 2 7 25% 8920 72071 13500 46%
c o 20.67 27 236 0 22 5126 22 70079 17041 3.6 29 8 2 7 25% 8961 72071 13500 46%
c - 20.95 27 233 0 23 5340 22 71951 16343 3.6 29 8 2 7 25% 8976 72071 13500 46%
c - 21.47 27 228 0 24 5765 22 76746 17770 3.6 29 8 2 7 25% 9078 72071 13500 46%
c c 22.05 27 225 0 24 6183 23 79971 20506 3.6 29 8 2 7 25% 9284 70703 13275 45%
c d 22.05 27 225 0 24 6183 23 79971 19682 3.6 29 8 2 7 25% 8834 70703 13275 45%
c u 22.10 27 225 0 24 6183 23 79971 16562 3.6 29 8 2 7 25% 8867 70703 13275 45%
c v 22.16 27 225 0 24 6183 23 79971 14566 3.6 29 8 2 7 25% 8878 70703 13275 45%
c w 22.22 27 225 0 24 6183 23 79971 14566 3.6 29 8 2 7 25% 8878 70703 13275 45%
c x 22.29 27 225 0 24 6183 23 79971 14563 3.6 29 8 2 7 25% 8878 67160 13275 45%
c = 22.50 27 225 0 24 6183 23 79971 14563 3.6 29 8 2 7 25% 9300 67160 13064 45%
c d 22.50 27 225 0 24 6183 23 79971 14367 3.6 29 8 2 7 25% 8809 67160 13055 45%
c t 22.51 27 225 0 24 6183 23 79971 14367 3.6 29 8 2 7 25% 8804 67160 13055 45%
c
c  seconds   switched     rate         size/glue tier1    binary         remaining
c         MB   reductions   conflicts        size  tier2     irredundant
c           level   restarts      redundant    glue   trail         variables
c
c c 22.56 27 225 0 24 6183 23 79971 14351 3.6 29 8 2 7 25% 8812 67128 13051 45%
c d 22.56 27 225 0 24 6183 23 79971 14350 3.6 29 8 2 7 25% 8804 67128 13051 45%
c u 22.60 27 225 0 24 6183 23 79971 13544 3.6 29 8 2 7 25% 8810 67128 13051 45%
c v 22.63 27 225 0 24 6183 23 79971 13166 3.6 29 8 2 7 25% 8813 67128 13051 45%
c w 22.74 27 225 0 24 6183 23 79971 13151 3.6 29 8 2 7 25% 8813 67128 13051 45%
c x 22.80 27 225 0 24 6183 23 79971 13151 3.6 29 8 2 7 25% 8818 66816 13051 45%
c = 23.15 27 225 0 24 6183 23 79971 13151 3.6 29 8 2 7 25% 9240 66816 12840 44%
c d 23.16 27 225 0 24 6183 23 79971 12965 3.6 29 8 2 7 25% 8783 66816 12840 44%
c t 23.17 27 225 0 24 6183 23 79971 12965 3.6 29 8 2 7 25% 8782 66816 12840 44%
c - 23.36 27 224 0 25 6298 23 81644 12613 3.6 29 8 2 7 25% 8802 66816 12840 44%
c - 23.98 27 221 0 26 6783 23 86647 15161 3.6 29 8 2 7 26% 8856 66816 12840 44%
c - 24.43 27 219 0 27 7104 22 91749 17283 3.5 29 8 2 7 25% 8947 66815 12840 44%
c s 24.91 27 217 0 27 7489 22 95813 20856 3.5 29 8 2 7 26% 9007 64611 12840 44%
c e 24.98 27 217 0 27 7489 22 95813 20856 3.5 29 8 2 7 26% 6010 71623 11306 39%
c 2 24.98 27 217 0 27 7489 22 95813 20856 3.5 29 8 2 7 26% 6004 71623 11306 39%
c s 24.99 27 217 0 27 7489 22 95813 20856 3.5 29 8 2 7 26% 6013 71239 11306 39%
c e 25.00 27 217 0 27 7489 22 95813 20856 3.5 29 8 2 7 26% 6013 71339 11259 39%
c ^ 25.00 27 217 0 27 7489 22 95813 20856 3.5 29 8 2 7 26% 6013 71339 11259 39%
c - 25.20 27 216 0 28 7649 22 96945 14093 3.5 29 8 2 6 26% 6028 71337 11259 39%
c - 26.03 27 212 0 29 8398 23 102236 16673 3.5 29 8 2 6 26% 6058 71332 11259 39%
c
c  seconds   switched     rate          size/glue tier1    binary         remaining
c         MB   reductions   conflicts         size  tier2     irredundant
c           level   restarts       redundant    glue   trail         variables
c
c d 26.30 27 210 0 29 8647 23 104637 18772 3.5 30 9 2 6 26% 6041 71328 11242 39%
c u 26.35 27 210 0 29 8647 23 104637 15881 3.5 30 9 2 6 26% 6061 71328 11242 39%
c v 26.40 27 210 0 29 8647 23 104637 13938 3.5 30 9 2 6 26% 6065 71328 11242 39%
c w 26.48 27 210 0 29 8647 23 104637 13920 3.5 30 9 2 6 26% 6065 71328 11242 39%
c x 26.53 27 210 0 29 8647 23 104637 13917 3.5 30 9 2 6 26% 6065 71306 11242 39%
c = 26.93 27 210 0 29 8647 23 104637 13917 3.5 30 9 2 6 26% 6481 70976 10993 38%
c d 26.93 27 210 0 29 8647 23 104637 13129 3.5 30 9 2 6 26% 6027 70976 10993 38%
c t 26.94 27 210 0 29 8647 23 104637 13129 3.5 30 9 2 6 26% 5964 70976 10993 38%
c f 26.98 27 210 0 29 8647 23 104637 13129 3.5 30 9 2 6 26% 5968 70901 11000 38%
c c 27.00 27 210 0 29 8647 23 104637 13127 3.5 30 9 2 6 26% 5945 70883 10993 38%
c d 27.01 27 210 0 29 8647 23 104637 13127 3.5 30 9 2 6 26% 5943 70883 10993 38%
c u 27.04 27 210 0 29 8647 23 104637 12273 3.5 30 9 2 6 26% 5949 70883 10993 38%
c v 27.06 27 210 0 29 8647 23 104637 11912 3.5 30 9 2 6 26% 5949 70883 10993 38%
c w 27.15 27 210 0 29 8647 23 104637 11729 3.5 30 9 2 6 26% 5949 70883 10993 38%
c t 27.53 27 210 0 29 8647 23 104637 11729 3.5 30 9 2 6 26% 5947 70883 10993 38%
c i 27.56 27 209 0 29 8652 23 105119 12149 3.5 29 9 2 6 26% 5956 70879 10992 38%
c i 27.57 27 208 0 29 8657 23 105318 12319 3.4 29 9 2 6 26% 5963 70879 10991 38%
c i 27.57 27 208 0 29 8658 23 105441 12411 3.4 29 9 2 6 26% 5969 70879 10990 38%
c i 27.58 27 208 0 29 8665 23 105496 12461 3.4 29 9 2 6 26% 5970 70879 10989 38%
c i 27.58 27 208 0 29 8674 23 105619 12546 3.4 29 9 2 6 26% 5977 70879 10988 38%
c
c  seconds   switched     rate          size/glue tier1    binary         remaining
c         MB   reductions   conflicts         size  tier2     irredundant
c           level   restarts       redundant    glue   trail         variables
c
c i 27.59 27 207 0 29 8680 23 106140 12913 3.4 29 8 2 6 26% 5994 70879 10986 38%
c i 27.59 27 206 0 29 8682 23 106482 13204 3.4 29 8 2 6 26% 6000 70879 10982 38%
c i 27.61 27 205 0 29 8707 22 106923 13570 3.4 29 8 2 6 26% 6012 70879 10981 38%
c i 27.61 27 205 0 29 8707 22 106977 13601 3.4 29 8 2 6 26% 6015 70879 10980 38%
c i 27.61 27 205 0 29 8707 22 107019 13628 3.4 29 8 2 6 26% 6019 70879 10976 38%
c } 27.61 27 205 0 29 8707 22 107022 13626 3.4 29 8 2 6 26% 6020 70879 10969 38%
c 0 27.61 27 205 0 29 8707 22 107022 13626 3.4 29 8 2 6 26% 6020 70879 10969 38%
c
c ---- [ result ] ------------------------------------------------------------
c
s UNSATISFIABLE
c
c ---- [ profiling ] ---------------------------------------------------------
c
c          18.22   66.01 %  search
c          18.22   66.01 %  focused
c           8.77   31.75 %  simplify
c           8.50   30.78 %  probe
c           3.62   13.12 %  sweep
c           2.94   10.64 %  vivify
c           0.63    2.29 %  factor
c           0.62    2.25 %  congruence
c           0.58    2.11 %  eliminate
c           0.53    1.93 %  preprocess
c           0.50    1.81 %  substitute
c           0.21    0.75 %  fastel
c           0.16    0.58 %  reduce
c           0.13    0.46 %  transitive
c           0.10    0.36 %  subsume
c           0.06    0.21 %  backbone
c           0.05    0.18 %  lucky
c           0.04    0.13 %  parse
c =============================================
c          27.61  100.00 %  total
c
c ---- [ statistics ] --------------------------------------------------------
c
c chronological:                         4349                4 %  conflicts
c conflicts:                           107022             3876.67 per second
c congruent:                             3647               12 %  variables
c decisions:                          2316789               21.65 per conflict
c eliminated:                           12437               43 %  variables
c factored:                              4729               16 %  variables
c fast_eliminated:                       8899               72 %  eliminated
c fast_strengthened:                       14                3 %  per strengthened
c fast_subsumed:                           96                1 %  per subsumed
c iterations:                              11                0 %  variables
c propagations:                      98799558          3578824    per second
c reductions:                              29             3690    interval
c reordered:                                4            26756    interval
c restarts:                              8707               12    interval
c strengthened:                           505                0 %  checks
c substituted:                          10435               36 %  variables
c subsumed:                             14261                1 %  checks
c switched:                                 0                0    interval
c vivified:                             57884               12 %  checks
c
c ---- [ glue usage ] --------------------------------------------------------
c
c focused glue 2 used 59124 clauses 23.04% accumulated 71.92% tier1
c focused glue 3 used 20269 clauses  7.90% accumulated 79.82%
c focused glue 4 used 12443 clauses  4.85% accumulated 84.67%
c focused glue 5 used  8023 clauses  3.13% accumulated 87.79%
c focused glue 6 used  6337 clauses  2.47% accumulated 90.26% tier2
c
c ---- [ resources ] ---------------------------------------------------------
c
c maximum-resident-set-size:         28659712 bytes         27 MB
c process-time:                            28s              27.61 seconds
c
c ---- [ shutting down ] -----------------------------------------------------
c
c exit 20
